20
4
64
16
c ind 21 22 23 24
p cnf 104 333
s0		0
-s1		0
-s2		0
-s3		0
t0		-s0		a0.0.0		0
-t0		s0		0
-t0		-a0.0.0		0
-t1		t0		0
-t1		-c0		0
t1		-t0		c0		0
-t2		t0		0
-t2		c0		0
t2		-t0		-c0		0
t3		-s0		-a0.0.0		0
-t3		s0		0
-t3		a0.0.0		0
-t4		t3		0
-t4		-c0		0
t4		-t3		c0		0
-t5		t3		0
-t5		c0		0
t5		-t3		-c0		0
t6		-s1		a0.1.0		0
-t6		s1		0
-t6		-a0.1.0		0
t7		-s1		-a0.1.0		0
-t7		s1		0
-t7		a0.1.0		0
-t8		t7		0
-t8		-c0		0
t8		-t7		c0		0
-t9		t7		0
-t9		c0		0
t9		-t7		-c0		0
t10		-s2		a0.2.0		0
-t10		s2		0
-t10		-a0.2.0		0
t11		-s2		-a0.2.0		0
-t11		s2		0
-t11		a0.2.0		0
-t12		t11		0
-t12		-c0		0
t12		-t11		c0		0
-t13		t11		0
-t13		c0		0
t13		-t11		-c0		0
t14		-s3		a0.3.0		0
-t14		s3		0
-t14		-a0.3.0		0
t15		-s3		-a0.3.0		0
-t15		s3		0
-t15		a0.3.0		0
-s4		0
-s5		t1		t4		t6		t8		0
s5		-t1		0
s5		-t4		0
s5		-t6		0
s5		-t8		0
-s6		t2		t5		t10		t12		0
s6		-t2		0
s6		-t5		0
s6		-t10		0
s6		-t12		0
-s7		t9		t13		t14		t15		0
s7		-t9		0
s7		-t13		0
s7		-t14		0
s7		-t15		0
t16		-s4		a1.0.0		0
-t16		s4		0
-t16		-a1.0.0		0
-t17		t16		0
-t17		-c1		0
t17		-t16		c1		0
-t18		t16		0
-t18		c1		0
t18		-t16		-c1		0
t19		-s4		-a1.0.0		0
-t19		s4		0
-t19		a1.0.0		0
-t20		t19		0
-t20		-c1		0
t20		-t19		c1		0
-t21		t19		0
-t21		c1		0
t21		-t19		-c1		0
t22		-s5		a1.1.0		0
-t22		s5		0
-t22		-a1.1.0		0
t23		-s5		-a1.1.0		0
-t23		s5		0
-t23		a1.1.0		0
-t24		t23		0
-t24		-c1		0
t24		-t23		c1		0
-t25		t23		0
-t25		c1		0
t25		-t23		-c1		0
t26		-s6		a1.2.0		0
-t26		s6		0
-t26		-a1.2.0		0
t27		-s6		-a1.2.0		0
-t27		s6		0
-t27		a1.2.0		0
-t28		t27		0
-t28		-c1		0
t28		-t27		c1		0
-t29		t27		0
-t29		c1		0
t29		-t27		-c1		0
t30		-s7		a1.3.0		0
-t30		s7		0
-t30		-a1.3.0		0
t31		-s7		-a1.3.0		0
-t31		s7		0
-t31		a1.3.0		0
-s8		0
-s9		t1		t4		t6		t8		t17		t20		t22		t24		0
s9		-t1		0
s9		-t4		0
s9		-t6		0
s9		-t8		0
s9		-t17		0
s9		-t20		0
s9		-t22		0
s9		-t24		0
-s10		t2		t5		t10		t12		t18		t21		t26		t28		0
s10		-t2		0
s10		-t5		0
s10		-t10		0
s10		-t12		0
s10		-t18		0
s10		-t21		0
s10		-t26		0
s10		-t28		0
-s11		t9		t13		t14		t15		t25		t29		t30		t31		0
s11		-t9		0
s11		-t13		0
s11		-t14		0
s11		-t15		0
s11		-t25		0
s11		-t29		0
s11		-t30		0
s11		-t31		0
t32		-s8		a2.0.0		0
-t32		s8		0
-t32		-a2.0.0		0
-t33		t32		0
-t33		-c2		0
t33		-t32		c2		0
-t34		t32		0
-t34		c2		0
t34		-t32		-c2		0
t35		-s8		-a2.0.0		0
-t35		s8		0
-t35		a2.0.0		0
-t36		t35		0
-t36		-c2		0
t36		-t35		c2		0
-t37		t35		0
-t37		c2		0
t37		-t35		-c2		0
t38		-s9		a2.1.0		0
-t38		s9		0
-t38		-a2.1.0		0
t39		-s9		-a2.1.0		0
-t39		s9		0
-t39		a2.1.0		0
-t40		t39		0
-t40		-c2		0
t40		-t39		c2		0
-t41		t39		0
-t41		c2		0
t41		-t39		-c2		0
t42		-s10		a2.2.0		0
-t42		s10		0
-t42		-a2.2.0		0
t43		-s10		-a2.2.0		0
-t43		s10		0
-t43		a2.2.0		0
-t44		t43		0
-t44		-c2		0
t44		-t43		c2		0
-t45		t43		0
-t45		c2		0
t45		-t43		-c2		0
t46		-s11		a2.3.0		0
-t46		s11		0
-t46		-a2.3.0		0
t47		-s11		-a2.3.0		0
-t47		s11		0
-t47		a2.3.0		0
-s12		0
-s13		t1		t4		t6		t8		t17		t20		t22		t24		t33		t36		t38		t40		0
s13		-t1		0
s13		-t4		0
s13		-t6		0
s13		-t8		0
s13		-t17		0
s13		-t20		0
s13		-t22		0
s13		-t24		0
s13		-t33		0
s13		-t36		0
s13		-t38		0
s13		-t40		0
-s14		t2		t5		t10		t12		t18		t21		t26		t28		t34		t37		t42		t44		0
s14		-t2		0
s14		-t5		0
s14		-t10		0
s14		-t12		0
s14		-t18		0
s14		-t21		0
s14		-t26		0
s14		-t28		0
s14		-t34		0
s14		-t37		0
s14		-t42		0
s14		-t44		0
-s15		t9		t13		t14		t15		t25		t29		t30		t31		t41		t45		t46		t47		0
s15		-t9		0
s15		-t13		0
s15		-t14		0
s15		-t15		0
s15		-t25		0
s15		-t29		0
s15		-t30		0
s15		-t31		0
s15		-t41		0
s15		-t45		0
s15		-t46		0
s15		-t47		0
t48		-s12		a3.0.0		0
-t48		s12		0
-t48		-a3.0.0		0
-t49		t48		0
-t49		-c3		0
t49		-t48		c3		0
-t50		t48		0
-t50		c3		0
t50		-t48		-c3		0
t51		-s12		-a3.0.0		0
-t51		s12		0
-t51		a3.0.0		0
-t52		t51		0
-t52		-c3		0
t52		-t51		c3		0
-t53		t51		0
-t53		c3		0
t53		-t51		-c3		0
t54		-s13		a3.1.0		0
-t54		s13		0
-t54		-a3.1.0		0
t55		-s13		-a3.1.0		0
-t55		s13		0
-t55		a3.1.0		0
-t56		t55		0
-t56		-c3		0
t56		-t55		c3		0
-t57		t55		0
-t57		c3		0
t57		-t55		-c3		0
t58		-s14		a3.2.0		0
-t58		s14		0
-t58		-a3.2.0		0
t59		-s14		-a3.2.0		0
-t59		s14		0
-t59		a3.2.0		0
-t60		t59		0
-t60		-c3		0
t60		-t59		c3		0
-t61		t59		0
-t61		c3		0
t61		-t59		-c3		0
t62		-s15		a3.3.0		0
-t62		s15		0
-t62		-a3.3.0		0
t63		-s15		-a3.3.0		0
-t63		s15		0
-t63		a3.3.0		0
-s16		0
-s17		t1		t4		t6		t8		t17		t20		t22		t24		t33		t36		t38		t40		t49		t52		t54		t56		0
s17		-t1		0
s17		-t4		0
s17		-t6		0
s17		-t8		0
s17		-t17		0
s17		-t20		0
s17		-t22		0
s17		-t24		0
s17		-t33		0
s17		-t36		0
s17		-t38		0
s17		-t40		0
s17		-t49		0
s17		-t52		0
s17		-t54		0
s17		-t56		0
-s18		t2		t5		t10		t12		t18		t21		t26		t28		t34		t37		t42		t44		t50		t53		t58		t60		0
s18		-t2		0
s18		-t5		0
s18		-t10		0
s18		-t12		0
s18		-t18		0
s18		-t21		0
s18		-t26		0
s18		-t28		0
s18		-t34		0
s18		-t37		0
s18		-t42		0
s18		-t44		0
s18		-t50		0
s18		-t53		0
s18		-t58		0
s18		-t60		0
-s19		t9		t13		t14		t15		t25		t29		t30		t31		t41		t45		t46		t47		t57		t61		t62		t63		0
s19		-t9		0
s19		-t13		0
s19		-t14		0
s19		-t15		0
s19		-t25		0
s19		-t29		0
s19		-t30		0
s19		-t31		0
s19		-t41		0
s19		-t45		0
s19		-t46		0
s19		-t47		0
s19		-t57		0
s19		-t61		0
s19		-t62		0
s19		-t63		0
s3		s7		s11		s15		s19		0
